p cnf 100 30
x 1 -5 -7 -10 12 13 -14 -16 17 19 -22 25 -27 -29 30 -32 -36 -37 -38 -39 -41 -44 45 48 49 -51 -55 56 -58 59 67 -68 69 72 -74 75 76 -77 -82 -83 85 86 87 89 -90 92 -94 95 -98 0
x -2 -3 -4 -5 -7 8 -10 -11 -12 14 15 17 20 -24 -25 26 27 33 39 -44 -46 -47 48 -49 50 51 52 55 -57 -59 61 62 63 64 -65 -69 72 73 75 -77 -79 -80 81 82 -86 -87 88 89 90 91 93 95 96 97 -100 0
x 4 8 10 12 13 15 17 19 -20 -21 26 27 -30 -31 32 36 38 43 -46 52 53 -58 59 -60 65 -66 -67 -68 69 72 -74 -76 -78 80 81 -85 86 -87 -88 89 -90 -92 93 95 98 100 0
x 2 -3 -4 -5 7 9 12 15 18 20 -24 26 -28 -29 -30 34 -38 39 41 -42 45 48 -49 54 58 59 -60 -61 62 63 64 67 68 69 70 73 74 76 -78 82 -87 89 93 99 0
x 1 2 -4 5 8 9 12 -14 15 -16 17 19 -21 -22 25 26 27 28 29 30 -31 -33 -34 36 -37 -38 40 41 42 43 47 -53 -55 -56 -59 -60 -61 -62 -63 64 -65 66 -68 -72 77 -82 84 87 -91 -92 93 -98 0
x -3 5 -7 -8 -13 -14 17 23 -24 -25 27 38 42 -43 -44 46 48 49 50 -52 -57 59 -60 61 64 65 71 73 76 77 -79 80 81 82 84 85 -87 -88 -91 -92 -95 -97 -100 0
x 2 -3 7 8 -11 14 -16 18 20 23 -30 31 -34 35 36 38 -39 -42 -44 -46 47 -48 -51 52 -53 56 -59 62 -65 67 -70 71 73 -75 79 -80 84 -85 -86 -87 90 93 94 -96 -98 99 0
x -4 -5 6 -7 -8 -10 13 -15 17 -18 21 23 27 30 -31 -32 -33 35 -36 38 -39 -40 41 44 -46 -48 -49 50 51 53 -54 -55 56 -57 58 60 64 -67 69 70 72 74 -77 -79 80 -82 89 -90 -92 -93 -96 98 -99 0
x -4 -6 -8 -9 10 11 -12 -13 14 -16 -20 -21 23 25 26 29 30 -31 32 -33 -34 35 -37 -38 40 -41 -43 -46 -48 49 51 52 54 58 62 -63 -66 -67 68 -69 -71 72 73 -75 -80 -81 82 83 85 -87 88 -89 -90 93 95 97 99 -100 0
x -1 3 4 7 8 -9 -10 -11 -12 13 -19 20 -23 24 -25 -34 39 40 -41 42 43 45 48 -49 52 53 54 58 59 -60 -61 63 -64 67 69 -71 -72 75 -76 81 -84 85 88 -92 93 94 95 97 98 99 0
x 2 3 -5 -7 -10 -11 -12 -14 -15 17 -21 -22 23 24 28 29 30 -32 -33 -34 37 -38 40 41 -42 -44 52 -55 -56 59 62 66 74 80 -81 -83 -86 -89 -93 -95 -97 -100 0
x -2 6 -10 11 -13 15 -16 17 -20 -21 -22 -23 24 25 27 30 -33 34 -36 40 42 -43 -45 46 49 51 -55 61 -63 -64 -65 -66 67 68 -69 71 73 -74 76 78 84 85 86 95 96 97 -98 99 -100 0
x -1 2 -7 8 -10 11 14 -17 18 -19 20 -21 -23 27 -29 -32 35 46 -47 -48 49 -50 -51 -54 56 57 60 -62 63 64 65 -66 -67 -68 69 71 -72 -73 74 76 77 -78 81 82 -83 -87 -88 -90 91 -99 -100 0
x 2 -7 9 -12 -13 -14 15 20 -23 24 -27 -28 -30 -32 -36 38 41 -43 -46 47 -48 50 -52 -53 55 60 -63 -65 67 -68 -72 74 77 79 -81 84 86 88 -89 -90 92 -94 -96 99 0
x 1 -2 3 -4 -6 -11 -13 -15 20 -22 23 25 -26 27 -28 29 -31 -33 -34 -35 -39 -41 -42 -45 -46 48 -49 -52 53 -54 58 -61 -63 -65 -67 -68 -70 -71 74 77 78 -79 -82 84 85 -88 -90 -94 95 -96 -98 -100 0
x 2 -3 -4 -5 8 -10 -12 13 -14 15 -17 18 20 -21 26 28 32 33 40 -43 45 -47 54 -56 -57 59 62 -67 70 -71 73 75 77 -78 -79 82 -83 84 85 86 87 90 -95 -98 99 0
x -2 -4 -7 -9 -10 -11 -12 -14 15 -18 24 28 -34 35 36 -37 40 42 -43 45 -46 48 -50 -55 56 -57 58 -60 61 -62 -64 65 68 69 -70 71 -72 73 74 76 -78 -80 85 88 90 -91 -98 99 -100 0
x -2 3 4 -5 6 7 8 10 -11 -12 14 -16 17 -21 23 -28 31 -32 -35 -36 37 38 -41 -46 -48 49 50 51 52 53 56 -58 63 -64 67 -69 -70 72 -74 -75 76 -78 -79 -80 -84 -89 90 91 -93 -96 -97 98 99 -100 0
x -3 -5 6 8 -9 11 -12 13 -14 15 22 -23 26 -27 30 31 -32 -33 37 38 -42 -43 -45 -47 50 55 56 57 58 62 64 -67 68 70 72 73 -76 -77 82 -83 84 -85 -91 92 -95 98 0
x -2 -5 6 -10 -11 15 17 19 20 -22 23 25 27 -31 32 -33 -34 36 -39 42 -43 44 -47 51 -59 60 -62 -63 -69 71 -73 -74 -75 -76 78 -79 -80 -81 83 85 -86 87 -90 92 -94 -95 100 0
x -1 -3 7 8 -9 -10 -13 15 -17 20 -21 -23 -27 28 -31 -36 -37 39 40 41 -45 -46 -47 -49 53 54 55 56 57 58 60 -61 -66 67 70 -72 -73 -84 -88 89 90 93 -96 97 98 -99 0
x -1 -2 -3 -6 7 -8 -9 11 14 16 20 22 26 27 -29 -30 33 34 35 -36 38 -39 -41 -43 44 46 48 -51 53 -56 59 61 62 -64 -65 67 68 -70 71 72 -73 74 -76 -77 -78 79 80 -87 -89 -90 -91 92 93 -95 96 97 99 -100 0
x 2 -5 6 7 8 10 -13 -14 -15 -24 26 -29 30 31 -32 -33 34 -35 -37 -38 -39 -41 -43 -46 51 -52 -53 54 -56 58 -61 -62 -67 69 70 -71 73 74 -75 -86 -87 -88 -89 -91 -92 93 94 97 -100 0
x 1 3 4 5 -7 -8 9 -10 -11 12 13 -14 -16 -17 -18 21 22 -26 -29 -31 -32 -37 38 40 -42 46 47 48 49 -51 53 54 56 -57 59 -60 -65 67 68 -69 76 -79 -80 -83 -84 85 -88 90 94 95 96 98 0
x 1 -2 -3 7 8 -9 -13 -14 -19 20 -21 23 -25 26 -28 -29 30 32 33 34 42 43 -44 46 47 -48 50 51 53 54 -58 59 -60 -62 63 66 67 69 -72 75 -77 80 -83 -87 91 93 94 95 -96 -98 100 0
x 3 -4 -5 6 -8 9 -10 11 12 -16 -17 -18 22 27 -28 -29 34 -35 -37 -38 39 42 -45 -46 -48 51 -53 56 58 -61 -62 -63 -64 68 69 75 76 -78 79 -81 -83 84 90 -93 -95 -96 -97 98 99 100 0
x -1 -2 -3 -4 9 10 11 12 -14 -16 -17 19 -20 22 23 -24 25 28 -30 31 -32 34 -35 38 -39 40 41 -43 -44 -47 -49 -52 53 55 61 70 71 -76 -79 81 82 -83 86 88 -89 93 94 95 96 98 0
x -1 -2 -5 -8 -11 -12 -15 16 -18 -22 24 26 27 29 30 -33 -34 37 40 -42 47 -48 -49 -50 52 53 -54 57 -58 59 -60 -61 62 -64 -68 -69 -70 -74 -75 76 -77 -78 82 -86 89 90 -93 95 -98 99 100 0
x 3 -4 -6 7 -8 -11 -14 -16 -17 18 -20 21 22 24 25 27 -30 -31 32 -33 36 37 41 -42 45 -46 -48 -50 -52 -54 55 56 58 59 -60 -61 63 64 66 -68 72 73 76 81 -85 86 -87 -88 -92 -98 100 0
x -2 -4 7 -8 -12 13 -14 17 19 20 22 -23 -24 -26 -27 32 35 39 -41 42 43 44 45 -49 51 -52 -54 -55 57 58 -59 60 62 -64 -65 69 -70 -73 -76 77 -79 -81 -83 85 87 90 91 92 -93 94 -96 -97 -98 0
g -20